100
128
58
4
38
30
56
14
40
32
56
44
61
28
35
59
32
28
23
50
38
39
37
43
20
61
20
47
3
4
43
23
61
45
45
33
26
28
54
64
31
33
17
56
25
47
40
34
56
43
54
28
2
18
28
53
55
37
45
36
31
43
26
28
44
38
46
20
31
54
46
34
48
1
21
58
27
54
20
53
42
25
64
56
19
53
53
1
27
59
26
47
43
9
30
56
45
27
29
48
1
50